; benchmark generated from python API
(set-info :status unknown)
(declare-fun S_3 () Real)
(declare-fun S_1 () Real)
(declare-fun S_4 () Real)
(declare-fun A_3 () Real)
(declare-fun L_2 () Real)
(declare-fun S_0 () Real)
(declare-fun A_0 () Real)
(declare-fun L_0 () Real)
(declare-fun A_1 () Real)
(declare-fun L0 () Real)
(declare-fun A_2 () Real)
(declare-fun L_1 () Real)
(declare-fun A_4 () Real)
(declare-fun S_2 () Real)
(assert
 (let (($x3571 (<= (+ L_0 (* (- 1.0) S_3) (* (- 1.0) A_0) (* 2.0 S_1)) 0.0)))
 (let (($x1816 (<= (+ S_1 (* (- 1.0) A_1) L_0) 0.0)))
 (let (($x37 (>= L0 0.0)))
 (let (($x1823 (<= (+ S_0 L_0 (* (- 1.0) A_0)) 0.0)))
 (let (($x12671 (<= (+ L_2 S_4 (* (/ 1.0 2.0) S_0) (* (- 1.0) A_3) (* (- (/ 1.0 2.0)) S_3)) 0.0)))
 (let ((?x528 (* (- 1.0) S_3)))
 (let ((?x321 (* (- 1.0) A_3)))
 (let ((?x631 (* (- 1.0) L_0)))
 (let (($x11177 (<= (+ (* (/ 3.0 2.0) L_2) (* (- (/ 1.0 2.0)) A_2) ?x321 S_4 (* (/ 1.0 2.0) S_0)) (- (/ 5.0 2.0)))))
 (let (($x259 (<= (+ (* 2.0 L_2) ?x631 S_4 (* (- 1.0) A_2) A_1 ?x321) (- 5.0))))
 (let (($x64 (= L_2 L_1)))
 (let ((?x323 (* (- 1.0) A_4)))
 (let ((?x3460 (* (/ 1.0 2.0) S_0)))
 (let ((?x11175 (* (/ 3.0 2.0) L_2)))
 (let (($x6076 (<= (+ (* 2.0 L_2) ?x631 S_4 (* (- 2.0) A_2) A_1 A_3 ?x323) (- 5.0))))
 (let (($x19347 (or $x64 $x6076 (<= (+ ?x11175 (* (- (/ 3.0 2.0)) A_2) A_3 S_4 ?x3460 ?x323) (- (/ 5.0 2.0))))))
 (let (($x4101 (<= (+ L_2 S_4 (* (- 1.0) A_2) (* (- 1.0) S_2) S_0 A_3 ?x323) 0.0)))
 (let (($x1477 (<= (+ A_1 ?x631 (* (- 1.0) S_2)) 0.0)))
 (let ((?x5844 (* 3.0 S_1)))
 (let ((?x1096 (* (- 1.0) S_0)))
 (let ((?x4036 (* (- 2.0) A_2)))
 (let ((?x5370 (* 2.0 L_2)))
 (let (($x17257 (or $x64 (<= (+ L_2 ?x631 (* (- 1.0) A_2) A_1) (- 10.0)) (<= (+ (* (/ 1.0 2.0) L_2) (* (- (/ 1.0 2.0)) A_2) ?x3460) (- (/ 15.0 2.0))))))
 (let (($x12685 (<= (+ L_2 (* (- 1.0) A_2) S_4 ?x3460 A_3 ?x323 (* (- (/ 1.0 2.0)) S_3)) 0.0)))
 (let (($x5093 (<= (+ L_2 ?x631 S_4 (* (- 1.0) A_2) A_1 ?x528 A_3 ?x323) 0.0)))
 (let ((?x237 (* (- 1.0) A_1)))
 (let ((?x253 (* (- 1.0) A_2)))
 (let (($x17236 (or $x64 (<= (+ L_2 L_0 S_4 ?x253 S_0 A_3 ?x323 ?x237) 0.0) $x6076)))
 (let (($x889 (>= S_4 (+ A_3 (* (- 1.0) L_2)))))
 (let (($x9301 (<= (+ (* (/ 1.0 2.0) L_0) (* (- (/ 1.0 2.0)) A_1) S_2 (* (- (/ 1.0 2.0)) S_4)) 0.0)))
 (let (($x12165 (or $x889 (<= (+ (* (- (/ 1.0 3.0)) S_4) (* (/ 1.0 3.0) S_0)) (- 5.0)) (<= (+ (* (- (/ 1.0 2.0)) L_0) (* (/ 1.0 2.0) A_1) (* (- (/ 1.0 2.0)) S_4)) (- 5.0)))))
 (let ((?x7237 (* 2.0 A_1)))
 (let ((?x2756 (* (- 3.0) A_2)))
 (let ((?x1271 (* (- 2.0) L_0)))
 (let ((?x930 (* 3.0 L_2)))
 (let (($x17184 (or $x64 (<= (+ ?x930 ?x1271 S_4 ?x2756 ?x7237) (- 15.0)) (<= (+ ?x5370 ?x4036 S_4 S_0) (- 10.0)))))
 (let (($x12540 (or $x64 (<= (+ L_2 L_0 ?x253 (* (- 1.0) A_0) (* 2.0 S_1)) (- 5.0)))))
 (let (($x54 (= L_1 L_0)))
 (let (($x17158 (or $x54 (<= (+ L_1 (* (- 1.0) S_4) (* 2.0 S_2) ?x237) (- 5.0)) $x889)))
 (let ((?x2065 (* (- 3.0) A_1)))
 (let ((?x1867 (* 2.0 S_0)))
 (let ((?x6788 (* 3.0 L_1)))
 (let (($x23401 (or $x54 (<= (+ L_1 S_4 (* (- 2.0) S_2) ?x1867 A_3 ?x323 ?x237) 0.0))))
 (let (($x17987 (or (<= (+ A_1 S_4 ?x528 ?x321) 0.0) (<= (+ L_1 S_4 (* (- (/ 1.0 2.0)) S_3) ?x3460 ?x321) 0.0))))
 (let (($x5465 (<= (+ L_1 S_4 (* (- 2.0) S_3) A_3 (* 2.0 S_1) ?x323 ?x237) 0.0)))
 (let (($x18875 (or $x64 (<= (+ (* (- 2.0) L_1) ?x5370 ?x4036 ?x7237 S_4 ?x528) 0.0))))
 (let (($x18019 (or $x64 (<= (+ (* (- 1.0) L_1) ?x5370 ?x4036 A_1 A_3 S_4 ?x323) 0.0))))
 (let (($x17884 (or $x64 (<= (+ (* (- 1.0) L_1) ?x5370 ?x253 A_1 ?x321 S_4) 0.0))))
 (let (($x10221 (or (<= (+ S_4 (* (- 2.0) S_3) S_0) 0.0) (<= (+ ?x1271 ?x7237 S_4 (* (- 3.0) S_3)) 0.0))))
 (let (($x6772 (<= (+ (* 4.0 L_1) S_4 (* 3.0 S_0) (* (- 4.0) A_1)) (- 20.0))))
 (let (($x7437 (or (<= (+ (* (- (/ 1.0 2.0)) S_3) ?x3460) (- 5.0)) (<= (+ ?x631 A_1 ?x528) (- 5.0)))))
 (let (($x2863 (<= (+ (* (- 2.0) L_1) ?x5370 ?x4036 (* (- 1.0) S_2) ?x7237 S_3) 0.0)))
 (let (($x3173 (<= (+ L_1 (* (- 1.0) L_2) A_2 (* (- 1.0) S_2) ?x237 S_0) 0.0)))
 (let ((?x3801 (* 3.0 A_1)))
 (let ((?x331 (* (- 1.0) S_2)))
 (let ((?x6168 (* (- 3.0) L_1)))
 (let (($x9633 (or $x54 (<= (+ (* 2.0 L_1) S_2 S_0 (* (- 2.0) A_1)) (- 10.0)))))
 (let ((?x5651 (* (- 2.0) A_1)))
 (let ((?x4654 (* 2.0 A_2)))
 (let ((?x4066 (* (- 2.0) L_2)))
 (let ((?x6456 (* 2.0 L_1)))
 (let ((?x524 (* (- 1.0) S_4)))
 (let ((?x348 (* 3.0 A_2)))
 (let ((?x7306 (* (- 3.0) L_2)))
 (let ((?x316 (* (- 1.0) S_1)))
 (let ((?x2896 (* 4.0 A_1)))
 (let ((?x1390 (* (- 4.0) A_2)))
 (let ((?x3605 (* 4.0 L_2)))
 (let ((?x6173 (* (- 4.0) L_1)))
 (let (($x23272 (or $x64 (<= (+ ?x6173 L_0 ?x3605 ?x1390 ?x2896 (* (- 1.0) A_0) S_4) 0.0))))
 (let (($x6140 (or $x54 (<= (+ L_1 (* (- 1.0) L_2) A_2 ?x237 S_1 ?x528) 0.0))))
 (let ((?x4100 (* 5.0 A_1)))
 (let ((?x4153 (* (- 5.0) A_2)))
 (let ((?x2413 (* 5.0 L_2)))
 (let ((?x5965 (* (- 5.0) L_1)))
 (let (($x23409 (or $x64 (<= (+ (* (- 2.0) L_1) ?x5370 ?x4036 ?x7237 ?x1096 S_1) 0.0))))
 (let (($x22816 (or $x64 (<= (+ ?x6168 L_0 ?x930 ?x2756 ?x3801 (* (- 1.0) A_0) S_3) 0.0))))
 (let (($x15717 (or $x54 $x889 (<= (+ L_1 (* (- 1.0) L_2) A_2 S_2 ?x237 ?x524) 0.0))))
 (let (($x2323 (<= (+ (* (- 2.0) L_1) L_0 ?x5370 ?x4036 S_2 ?x7237 (* (- 1.0) A_0)) 0.0)))
 (let (($x18031 (or $x64 (<= (+ (* (- 2.0) L_1) ?x5370 ?x4036 S_2 ?x7237 ?x316) 0.0))))
 (let (($x7495 (<= (+ L_0 (* (- 2.0) S_4) (* 3.0 S_2) (* (- 1.0) A_0)) 0.0)))
 (let (($x2801 (<= (+ (* (- 1.0) L_1) L_0 L_2 ?x253 A_1 (* (- 1.0) A_0) S_1) 0.0)))
 (let (($x276 (<= (+ L_0 (* (- (/ 1.0 2.0)) S_4) (* (- 1.0) A_0) (* (/ 3.0 2.0) S_1)) 0.0)))
 (let (($x915 (not (<= (+ A_2 (* (- 1.0) L_2)) S_3))))
 (let (($x1133 (or $x64 (not (<= L_2 L_1)))))
 (let (($x117 (>= S_3 S_2)))
 (let (($x124 (>= A_3 A_2)))
 (let (($x122 (>= A_1 A_0)))
 (let (($x1404 (or $x54 (not (<= L_1 L_0)))))
 (let (($x805 (<= (+ A_1 (* (- 1.0) L_1)) S_3)))
 (let (($x125 (>= A_4 A_3)))
 (let (($x114 (>= S_2 S_1)))
 (let (($x111 (>= S_1 S_0)))
 (let (($x36 (>= L_0 L0)))
 (let (($x120 (>= S_4 S_3)))
 (let (($x3069 (<= S_4 (+ A_4 (* (- 1.0) L_2)))))
 (and $x3069 $x120 $x36 $x111 $x114 $x125 $x805 $x1404 (or (<= (+ ?x331 S_0) (- 5.0)) $x1477) $x122 (or $x64 (<= (+ L_2 ?x253 S_2) (- 5.0))) $x124 $x117 $x1133 $x915 (or $x1477 (<= (+ S_4 (* (- 4.0) S_2) (* 3.0 S_0)) 0.0)) (or $x1477 (<= (+ S_3 (* (- 3.0) S_2) ?x1867) 0.0)) (or $x276 $x889) (or $x64 $x2801) (or $x64 (<= (+ ?x6173 ?x3605 ?x1390 ?x2896 ?x1096 S_3) 0.0)) (or (<= (+ (* (- 2.0) S_4) (* 3.0 S_2) ?x316) 0.0) $x889) (or (<= (+ (* (- 3.0) S_4) (* 4.0 S_2) ?x1096) 0.0) $x889) (or $x7495 $x889) $x18031 (or $x64 $x2323) (or $x64 (<= (+ ?x6168 ?x930 ?x2756 S_2 ?x3801 ?x1096) 0.0)) $x15717 $x22816 (or $x64 (<= (+ ?x6168 ?x930 ?x2756 ?x3801 ?x316 S_3) 0.0)) (or (<= (+ ?x524 ?x1096 (* 2.0 S_1)) 0.0) $x889) (or $x54 $x889 (<= (+ ?x6456 ?x4066 ?x4654 ?x5651 ?x524 S_1) 0.0)) $x23409 (or $x64 (<= (+ ?x5965 ?x2413 ?x4153 ?x4100 S_4 ?x1096) 0.0)) $x6140 $x23272 (or $x54 (<= (+ L_1 S_4 ?x528 A_3 S_0 ?x323 ?x237) 0.0)) (or $x64 (<= (+ ?x6173 ?x3605 ?x1390 ?x2896 S_4 ?x316) 0.0)) (or $x54 $x889 (<= (+ ?x6788 ?x7306 ?x348 ?x2065 ?x524 S_0) 0.0)) (or $x54 (<= (+ L_1 S_1 ?x237) (- 5.0))) (or $x54 (<= (+ ?x6456 (* (- 1.0) L_2) A_2 ?x5651 S_0) (- 5.0))) (or $x54 (<= (+ ?x6456 ?x4066 ?x4654 ?x5651 S_0 ?x528) 0.0)) $x9633 (or $x64 (<= (+ ?x6168 ?x930 ?x2756 ?x331 ?x3801 S_4) 0.0)) (or $x54 $x3173) (or $x64 $x2863) (or $x54 (<= (+ L_1 S_0 ?x237) (- 10.0))) $x7437 (or $x54 $x6772) $x10221 (or $x1477 (<= (+ L_2 S_4 ?x331 S_0 ?x321) 0.0)) $x17884 $x18019 $x18875 (or $x54 $x5465) (or $x54 (<= (+ ?x6456 S_4 ?x321 S_0 ?x237) (- 5.0))) $x17987 (or (<= (+ (* (- (/ 1.0 2.0)) S_4) (* (/ 1.0 2.0) S_1)) (- 5.0)) $x889) (or $x64 (<= (+ (* (- 1.0) L_1) L_2 ?x253 A_1) (- 5.0))) $x23401 (or (<= (+ ?x524 S_2) (- 5.0)) $x889) (or $x64 (<= (+ (* (- 2.0) L_1) ?x930 ?x2756 ?x7237 S_4) (- 5.0))) (or $x54 (<= (+ ?x6788 S_4 A_3 ?x1867 ?x323 ?x2065) (- 10.0))) $x17158 (or $x64 (<= (+ L_2 ?x253 S_4 S_1 A_3 ?x323 ?x528) 0.0)) (or $x64 (<= (+ L_2 ?x253 S_1) (- 10.0))) (or $x64 (<= (+ ?x930 ?x2756 S_4 (* 2.0 S_1)) (- 15.0))) $x12540 (or $x64 (<= (+ ?x5370 ?x4036 S_4 S_1 A_3 ?x323) (- 5.0))) $x17184 $x12165 (or $x9301 $x889) (or $x64 (<= (+ ?x5370 ?x253 S_4 S_1 ?x321) (- 5.0))) $x17236 (or $x64 $x5093 $x12685) $x17257 (or $x64 (<= (+ ?x5370 ?x4036 ?x1096 ?x5844) (- 10.0))) (or $x64 $x1477 $x4101) $x19347 (or $x64 $x259 $x11177) (or (<= (+ L_2 ?x631 S_4 A_1 ?x321 ?x528) 0.0) $x12671) $x1823 $x37 $x1816 $x3571 (<= (+ (* (- 2.0) S_3) ?x5844 ?x1096) 0.0) (<= (+ S_4 (* (- 3.0) S_3) (* 2.0 S_1)) 0.0) (<= (+ ?x528 S_1) (- 5.0)) (<= (+ L_2 ?x321 S_4 S_1 ?x528) 0.0)))))))))))))))))))))))))))))))))))))))))))))))))))))))))))))))))))))))))))))))))))))))))))))))))))
(check-sat)
